p cnf 445 468
112 113 114 115  0
122 123 124 125  0
132 133 134 135  0
142 143 144 145  0
212 213 214 215  0
222 223 224 225  0
232 233 234 235  0
242 243 244 245  0
312 313 314 315  0
322 323 324 325  0
332 333 334 335  0
342 343 344 345  0
412 413 414 415  0
422 423 424 425  0
432 433 434 435  0
442 443 444 445  0
-112 -122 0
-112 -132 0
-112 -142 0
-122 -132 0
-122 -142 0
-132 -142 0
-113 -123 0
-113 -133 0
-113 -143 0
-123 -133 0
-123 -143 0
-133 -143 0
-114 -124 0
-114 -134 0
-114 -144 0
-124 -134 0
-124 -144 0
-134 -144 0
-115 -125 0
-115 -135 0
-115 -145 0
-125 -135 0
-125 -145 0
-135 -145 0
-212 -222 0
-212 -232 0
-212 -242 0
-222 -232 0
-222 -242 0
-232 -242 0
-213 -223 0
-213 -233 0
-213 -243 0
-223 -233 0
-223 -243 0
-233 -243 0
-214 -224 0
-214 -234 0
-214 -244 0
-224 -234 0
-224 -244 0
-234 -244 0
-215 -225 0
-215 -235 0
-215 -245 0
-225 -235 0
-225 -245 0
-235 -245 0
-312 -322 0
-312 -332 0
-312 -342 0
-322 -332 0
-322 -342 0
-332 -342 0
-313 -323 0
-313 -333 0
-313 -343 0
-323 -333 0
-323 -343 0
-333 -343 0
-314 -324 0
-314 -334 0
-314 -344 0
-324 -334 0
-324 -344 0
-334 -344 0
-315 -325 0
-315 -335 0
-315 -345 0
-325 -335 0
-325 -345 0
-335 -345 0
-412 -422 0
-412 -432 0
-412 -442 0
-422 -432 0
-422 -442 0
-432 -442 0
-413 -423 0
-413 -433 0
-413 -443 0
-423 -433 0
-423 -443 0
-433 -443 0
-414 -424 0
-414 -434 0
-414 -444 0
-424 -434 0
-424 -444 0
-434 -444 0
-415 -425 0
-415 -435 0
-415 -445 0
-425 -435 0
-425 -445 0
-435 -445 0
-112 -212 0
-112 -312 0
-112 -412 0
-212 -312 0
-212 -412 0
-312 -412 0
-113 -213 0
-113 -313 0
-113 -413 0
-213 -313 0
-213 -413 0
-313 -413 0
-114 -214 0
-114 -314 0
-114 -414 0
-214 -314 0
-214 -414 0
-314 -414 0
-115 -215 0
-115 -315 0
-115 -415 0
-215 -315 0
-215 -415 0
-315 -415 0
-122 -222 0
-122 -322 0
-122 -422 0
-222 -322 0
-222 -422 0
-322 -422 0
-123 -223 0
-123 -323 0
-123 -423 0
-223 -323 0
-223 -423 0
-323 -423 0
-124 -224 0
-124 -324 0
-124 -424 0
-224 -324 0
-224 -424 0
-324 -424 0
-125 -225 0
-125 -325 0
-125 -425 0
-225 -325 0
-225 -425 0
-325 -425 0
-132 -232 0
-132 -332 0
-132 -432 0
-232 -332 0
-232 -432 0
-332 -432 0
-133 -233 0
-133 -333 0
-133 -433 0
-233 -333 0
-233 -433 0
-333 -433 0
-134 -234 0
-134 -334 0
-134 -434 0
-234 -334 0
-234 -434 0
-334 -434 0
-135 -235 0
-135 -335 0
-135 -435 0
-235 -335 0
-235 -435 0
-335 -435 0
-142 -242 0
-142 -342 0
-142 -442 0
-242 -342 0
-242 -442 0
-342 -442 0
-143 -243 0
-143 -343 0
-143 -443 0
-243 -343 0
-243 -443 0
-343 -443 0
-144 -244 0
-144 -344 0
-144 -444 0
-244 -344 0
-244 -444 0
-344 -444 0
-145 -245 0
-145 -345 0
-145 -445 0
-245 -345 0
-245 -445 0
-345 -445 0
112 0
223 0
334 0
445 0
-112 -112 112 0
-112 -113 122 0
-112 -114 132 0
-112 -115 142 0
-113 -112 212 0
-113 -113 222 0
-113 -114 232 0
-113 -115 242 0
-114 -112 312 0
-114 -113 322 0
-114 -114 332 0
-114 -115 342 0
-115 -112 412 0
-115 -113 422 0
-115 -114 432 0
-115 -115 442 0
-122 -212 112 0
-122 -213 122 0
-122 -214 132 0
-122 -215 142 0
-123 -212 212 0
-123 -213 222 0
-123 -214 232 0
-123 -215 242 0
-124 -212 312 0
-124 -213 322 0
-124 -214 332 0
-124 -215 342 0
-125 -212 412 0
-125 -213 422 0
-125 -214 432 0
-125 -215 442 0
-132 -312 112 0
-132 -313 122 0
-132 -314 132 0
-132 -315 142 0
-133 -312 212 0
-133 -313 222 0
-133 -314 232 0
-133 -315 242 0
-134 -312 312 0
-134 -313 322 0
-134 -314 332 0
-134 -315 342 0
-135 -312 412 0
-135 -313 422 0
-135 -314 432 0
-135 -315 442 0
-142 -412 112 0
-142 -413 122 0
-142 -414 132 0
-142 -415 142 0
-143 -412 212 0
-143 -413 222 0
-143 -414 232 0
-143 -415 242 0
-144 -412 312 0
-144 -413 322 0
-144 -414 332 0
-144 -415 342 0
-145 -412 412 0
-145 -413 422 0
-145 -414 432 0
-145 -415 442 0
-212 -122 113 0
-212 -123 123 0
-212 -124 133 0
-212 -125 143 0
-213 -122 213 0
-213 -123 223 0
-213 -124 233 0
-213 -125 243 0
-214 -122 313 0
-214 -123 323 0
-214 -124 333 0
-214 -125 343 0
-215 -122 413 0
-215 -123 423 0
-215 -124 433 0
-215 -125 443 0
-222 -222 113 0
-222 -223 123 0
-222 -224 133 0
-222 -225 143 0
-223 -222 213 0
-223 -223 223 0
-223 -224 233 0
-223 -225 243 0
-224 -222 313 0
-224 -223 323 0
-224 -224 333 0
-224 -225 343 0
-225 -222 413 0
-225 -223 423 0
-225 -224 433 0
-225 -225 443 0
-232 -322 113 0
-232 -323 123 0
-232 -324 133 0
-232 -325 143 0
-233 -322 213 0
-233 -323 223 0
-233 -324 233 0
-233 -325 243 0
-234 -322 313 0
-234 -323 323 0
-234 -324 333 0
-234 -325 343 0
-235 -322 413 0
-235 -323 423 0
-235 -324 433 0
-235 -325 443 0
-242 -422 113 0
-242 -423 123 0
-242 -424 133 0
-242 -425 143 0
-243 -422 213 0
-243 -423 223 0
-243 -424 233 0
-243 -425 243 0
-244 -422 313 0
-244 -423 323 0
-244 -424 333 0
-244 -425 343 0
-245 -422 413 0
-245 -423 423 0
-245 -424 433 0
-245 -425 443 0
-312 -132 114 0
-312 -133 124 0
-312 -134 134 0
-312 -135 144 0
-313 -132 214 0
-313 -133 224 0
-313 -134 234 0
-313 -135 244 0
-314 -132 314 0
-314 -133 324 0
-314 -134 334 0
-314 -135 344 0
-315 -132 414 0
-315 -133 424 0
-315 -134 434 0
-315 -135 444 0
-322 -232 114 0
-322 -233 124 0
-322 -234 134 0
-322 -235 144 0
-323 -232 214 0
-323 -233 224 0
-323 -234 234 0
-323 -235 244 0
-324 -232 314 0
-324 -233 324 0
-324 -234 334 0
-324 -235 344 0
-325 -232 414 0
-325 -233 424 0
-325 -234 434 0
-325 -235 444 0
-332 -332 114 0
-332 -333 124 0
-332 -334 134 0
-332 -335 144 0
-333 -332 214 0
-333 -333 224 0
-333 -334 234 0
-333 -335 244 0
-334 -332 314 0
-334 -333 324 0
-334 -334 334 0
-334 -335 344 0
-335 -332 414 0
-335 -333 424 0
-335 -334 434 0
-335 -335 444 0
-342 -432 114 0
-342 -433 124 0
-342 -434 134 0
-342 -435 144 0
-343 -432 214 0
-343 -433 224 0
-343 -434 234 0
-343 -435 244 0
-344 -432 314 0
-344 -433 324 0
-344 -434 334 0
-344 -435 344 0
-345 -432 414 0
-345 -433 424 0
-345 -434 434 0
-345 -435 444 0
-412 -142 115 0
-412 -143 125 0
-412 -144 135 0
-412 -145 145 0
-413 -142 215 0
-413 -143 225 0
-413 -144 235 0
-413 -145 245 0
-414 -142 315 0
-414 -143 325 0
-414 -144 335 0
-414 -145 345 0
-415 -142 415 0
-415 -143 425 0
-415 -144 435 0
-415 -145 445 0
-422 -242 115 0
-422 -243 125 0
-422 -244 135 0
-422 -245 145 0
-423 -242 215 0
-423 -243 225 0
-423 -244 235 0
-423 -245 245 0
-424 -242 315 0
-424 -243 325 0
-424 -244 335 0
-424 -245 345 0
-425 -242 415 0
-425 -243 425 0
-425 -244 435 0
-425 -245 445 0
-432 -342 115 0
-432 -343 125 0
-432 -344 135 0
-432 -345 145 0
-433 -342 215 0
-433 -343 225 0
-433 -344 235 0
-433 -345 245 0
-434 -342 315 0
-434 -343 325 0
-434 -344 335 0
-434 -345 345 0
-435 -342 415 0
-435 -343 425 0
-435 -344 435 0
-435 -345 445 0
-442 -442 115 0
-442 -443 125 0
-442 -444 135 0
-442 -445 145 0
-443 -442 215 0
-443 -443 225 0
-443 -444 235 0
-443 -445 245 0
-444 -442 315 0
-444 -443 325 0
-444 -444 335 0
-444 -445 345 0
-445 -442 415 0
-445 -443 425 0
-445 -444 435 0
-445 -445 445 0
